TYPE : TSP
DIMENSION : 5
EDGE_WEIGHT_TYPE : EXPLICIT
EDGE_WEIGHT_FORMAT : FULL_MATRIX
EDGE_WEIGHT_SECTION
0 430 513 491 243 
430 0 748 674 614 
513 748 0 98 309 
491 674 98 0 326 
243 614 309 326 0 
EOF
